78 25 71 7 68 0 36 57 9 8 31 53 58 74 21 40 59 51 77 50 62 28 75 47 26 79 69 13 44 15 73 56 2 1 46 22 66 27 67 49 61 20 43 65 42 37 39 32 3 30 35 23 63 14 18 64 45 10 29 60 70 12 5 6 52 16 54 33 4 17 11 38 34 76 72 24 41 19 48 55